&CONTROL
  outdir      = "./save/",
  pseudo_dir  = "./",
/
&SYSTEM
  ibrav       = 1,
  celldm(1)   = 15.1230D0,
  nat         = 64,
  ntyp        = 1,
  ecutwfc     = 17.4600D0,
  ecutrho     = 117.5200D0,
  nbnd        = 384,
  occupations = "smearing",
  smearing    = "m-p",
  degauss     = 0.0367D0,
/
&ELECTRONS
  diago_david_ndim = 3,
  conv_thr         = 1.0D-8,
  mixing_mode      = "local-TF",
  mixing_beta      = 0.4D0,
  !tqr=.true.
/
ATOMIC_SPECIES
Fe  28.086 Fe.pz-nd-rrkjus.UPF
ATOMIC_POSITIONS
Fe  0.34920540000000   0.71269000000000   0.52555710000000
Fe  0.56194210000000   0.32794770000000   0.42798940000000
Fe  0.79192490000000   0.88443490000000   0.64274900000000
Fe  0.24752070000000   0.46290370000000   0.43781910000000
Fe  0.84052400000000   0.41421030000000   0.04255360000000
Fe  0.55634960000000   0.96599890000000   0.82645560000000
Fe  0.68585010000000   0.78494010000000   0.82199290000000
Fe  0.42998860000000   0.19744220000000   0.78271480000000
Fe  0.79046670000000   0.01821730000000   0.87174760000000
Fe  0.06383810000000   0.20267300000000   0.67813100000000
Fe  0.21601120000000   0.57720020000000   0.70281880000000
Fe  0.21489940000000   0.34540090000000   0.78378960000000
Fe  0.96511760000000   0.17625710000000   0.15038640000000
Fe  0.66427330000000   0.76599610000000   0.51883720000000
Fe  0.05766940000000   0.51545180000000   0.87171350000000
Fe  0.09359020000000   0.22024580000000   0.92056920000000
Fe  0.21891090000000   0.90581130000000   0.54666910000000
Fe  0.09503770000000   0.65259930000000   0.29189420000000
Fe  0.81200170000000   0.59440700000000   0.88170080000000
Fe  0.33256570000000   0.70415250000000   0.86396390000000
Fe  0.73143760000000   0.62044770000000   0.13407090000000
Fe  0.95219060000000   0.52732990000000   0.24801440000000
Fe  0.50844360000000   0.68557790000000   0.68120700000000
Fe  0.28225740000000   0.32552350000000   0.12274050000000
Fe  0.05587740000000   0.04546770000000   0.36464580000000
Fe  0.02990220000000   0.38550680000000   0.13206230000000
Fe  0.98260260000000   0.96492330000000   0.57289540000000
Fe  0.06112830000000   0.38261810000000   0.55860450000000
Fe  0.28822520000000   0.71834120000000   0.20642590000000
Fe  0.47954440000000   0.65392610000000   0.33606260000000
Fe  0.49885150000000   0.57637030000000   0.99203840000000
Fe  0.60798620000000   0.30173790000000   0.87227930000000
Fe  0.05178130000000   0.77633300000000   0.00551740000000
Fe  0.29978990000000   0.02594260000000   0.35200550000000
Fe  0.94567430000000   0.92732210000000   0.18876660000000
Fe  0.44114610000000   0.89486040000000   0.64584490000000
Fe  0.50595140000000   0.15199710000000   0.55560250000000
Fe  0.88293100000000   0.34139810000000   0.79893130000000
Fe  0.25658290000000   0.88388600000000   0.00705790000000
Fe  0.82061720000000   0.82179030000000   0.00295020000000
Fe  0.30396440000000   0.08127930000000   0.64570450000000
Fe  0.73471740000000   0.18774510000000   0.03862730000000
Fe  0.40100160000000   0.50022170000000   0.24480020000000
Fe  0.81285750000000   0.36954280000000   0.33446670000000
Fe  0.68773140000000   0.05418790000000   0.58645990000000
Fe  0.00252560000000   0.75154090000000   0.44769660000000
Fe  0.89794350000000   0.57647980000000   0.59687080000000
Fe  0.76769640000000   0.99593370000000   0.37493810000000
Fe  0.87149750000000   0.19495220000000   0.51873660000000
Fe  0.83623970000000   0.79640710000000   0.33547810000000
Fe  0.79188520000000   0.38870220000000   0.58158990000000
Fe  0.66899800000000   0.22313770000000   0.25376640000000
Fe  0.42965010000000   0.17055470000000   0.26670710000000
Fe  0.95270090000000   0.69141230000000   0.77245300000000
Fe  0.27694620000000   0.56150170000000   0.04789920000000
Fe  0.99167700000000   0.93379350000000   0.79502210000000
Fe  0.40139450000000   0.38781680000000   0.93639150000000
Fe  0.62046730000000   0.52627130000000   0.78608260000000
Fe  0.60986690000000   0.44843510000000   0.20291420000000
Fe  0.18985260000000   0.03543150000000   0.85892040000000
Fe  0.76645110000000   0.60803580000000   0.41788750000000
Fe  0.27347390000000   0.09213760000000   0.09126750000000
Fe  0.52318890000000   0.04375710000000   0.06178340000000
Fe  0.51706390000000   0.93964190000000   0.43576060000000
K_POINTS gamma
